(declare-fun temp11145_2 () (_ BitVec 64))
(declare-fun temp11145_1 () (_ BitVec 64))
(declare-fun temp11145_3 () (_ BitVec 64))
(declare-fun var2166536 () (_ BitVec 64))
(declare-fun temp11145_5 () (_ BitVec 64))
(declare-fun temp11145_4 () (_ BitVec 64))
(declare-fun temp11145_6 () (_ BitVec 64))
(declare-fun var4659636 () (_ BitVec 64))
(declare-fun temp11145_7 () (_ BitVec 64))
(declare-fun var5703478 () (_ BitVec 64))
(declare-fun var5902556 () (_ BitVec 64))
(declare-fun temp11145_8 () (_ BitVec 64))
(declare-fun var6099287 () (_ BitVec 64))
(declare-fun temp11145_9 () (_ BitVec 64))
(declare-fun var6099288 () (_ BitVec 64))
(declare-fun temp11145_11 () (_ BitVec 64))
(declare-fun temp11145_10 () (_ BitVec 64))
(declare-fun temp11145_12 () (_ BitVec 64))
(declare-fun var6950664 () (_ BitVec 64))
(declare-fun temp11145_14 () (_ BitVec 64))
(declare-fun temp11145_13 () (_ BitVec 64))
(declare-fun temp11145_15 () (_ BitVec 64))
(declare-fun var7212791 () (_ BitVec 64))
(declare-fun temp11145_16 () (_ BitVec 64))
(declare-fun var6817832 () (_ BitVec 64))
(declare-fun var6817874 () (_ BitVec 64))
(declare-fun temp11145_18 () (_ BitVec 64))
(declare-fun temp11145_17 () (_ BitVec 64))
(declare-fun temp11145_19 () (_ BitVec 64))
(declare-fun var7670776 () (_ BitVec 64))
(declare-fun temp11145_20 () (_ BitVec 64))
(declare-fun var7670826 () (_ BitVec 64))
(declare-fun temp11145_21 () (_ BitVec 64))
(declare-fun var6817819 () (_ BitVec 64))
(declare-fun var6817818 () (_ BitVec 64))
(declare-fun temp11145_22 () (_ BitVec 64))
(declare-fun var6817823 () (_ BitVec 64))
(declare-fun temp11145_23 () (_ BitVec 64))
(declare-fun var6817825 () (_ BitVec 64))
(declare-fun temp11145_24 () (_ BitVec 64))
(declare-fun temp11145_25 () (_ BitVec 64))
(declare-fun var8718542 () (_ BitVec 64))
(declare-fun temp11145_26 () (_ BitVec 64))
(declare-fun temp11145_27 () (_ BitVec 64))
(declare-fun var8718572 () (_ BitVec 64))
(declare-fun var8718619 () (_ BitVec 64))
(declare-fun var8718540 () (_ BitVec 64))
(declare-fun var204433 () (_ BitVec 64))
(declare-fun var204435 () (_ BitVec 64))
(declare-fun var9182943 () (_ BitVec 64))
(declare-fun temp11145_29 () (_ BitVec 64))
(declare-fun temp11145_28 () (_ BitVec 64))
(assert (= temp11145_2 #x0000000000000000))
(assert (= temp11145_1 temp11145_2))
(assert (= temp11145_3 #x0000000000000005))
(assert (= var2166536 temp11145_3))
(assert (= temp11145_5 #x0000000000000000))
(assert (= temp11145_4 temp11145_5))
(assert (= temp11145_6 #x0000000000000000))
(assert (= var4659636 temp11145_6))
(assert (= temp11145_7 #x0000000000000000))
(assert (= var5703478 temp11145_7))
(assert (= var5902556 var5703478))
(assert (= temp11145_8 #x0000000000000000))
(assert (= var6099287 temp11145_8))
(assert (= temp11145_9 #x0000000000000000))
(assert (= var6099288 temp11145_9))
(assert (= temp11145_11 #x0000000000000000))
(assert (= temp11145_10 temp11145_11))
(assert (= temp11145_12 #x0000000000000005))
(assert (= var6950664 temp11145_12))
(assert (= temp11145_14 #x0000000000000000))
(assert (= temp11145_13 temp11145_14))
(assert (= temp11145_15 #x0000000000000000))
(assert (= var7212791 temp11145_15))
(assert (= temp11145_16 #x0000000000000000))
(assert (= var6817832 temp11145_16))
(assert (= var6817874 var6817832))
(assert (= temp11145_18 #x0000000000000000))
(assert (= temp11145_17 temp11145_18))
(assert (= temp11145_19 #x0000000000000001))
(assert (= var7670776 temp11145_19))
(assert (= temp11145_20 #x0000000000000000))
(assert (= var7670826 temp11145_20))
(assert (= temp11145_21 #x0000000000000000))
(assert (= var7670826 temp11145_21))
(assert (= var6817819 var6817874))
(assert (= var6817818 var6817819))
(assert (= temp11145_22 #x0000000000000001))
(assert (= var6817823 (bvand var6817818 temp11145_22)))
(assert (= temp11145_23 #x0000000000000000))
(assert (= var6817825
   (ite (= var6817823 temp11145_23) #x0000000000000001 #x0000000000000000)))
(assert (= temp11145_24 #x0000000000000001))
(assert (= var6817825 temp11145_24))
(assert (= temp11145_25 #x0000000000000001))
(assert (= var8718542 temp11145_25))
(assert (= temp11145_26 #x0000000000000000))
(assert (= temp11145_27 #x0000000000000002))
(assert (= var8718572 (ite (= var8718542 #x0000000000000001) temp11145_26 temp11145_27)))
(assert (= var8718619 var8718572))
(assert (= var8718540 var8718619))
(assert (= var204433 var8718540))
(assert (= var204435 var204433))
(assert (= var9182943 var204435))
(assert (= temp11145_29 #x0000000000000005))
(assert (= temp11145_28 temp11145_29))
(model-add temp11145_2 () (_ BitVec 64) #x0000000000000000)
(model-add temp11145_1 () (_ BitVec 64) #x0000000000000000)
(model-add temp11145_3 () (_ BitVec 64) #x0000000000000005)
(model-add var2166536 () (_ BitVec 64) #x0000000000000005)
(model-add temp11145_5 () (_ BitVec 64) #x0000000000000000)
(model-add temp11145_4 () (_ BitVec 64) #x0000000000000000)
(model-add temp11145_6 () (_ BitVec 64) #x0000000000000000)
(model-add var4659636 () (_ BitVec 64) #x0000000000000000)
(model-add temp11145_7 () (_ BitVec 64) #x0000000000000000)
(model-add var5703478 () (_ BitVec 64) #x0000000000000000)
(model-add var5902556 () (_ BitVec 64) #x0000000000000000)
(model-add temp11145_8 () (_ BitVec 64) #x0000000000000000)
(model-add var6099287 () (_ BitVec 64) #x0000000000000000)
(model-add temp11145_9 () (_ BitVec 64) #x0000000000000000)
(model-add var6099288 () (_ BitVec 64) #x0000000000000000)
(model-add temp11145_11 () (_ BitVec 64) #x0000000000000000)
(model-add temp11145_10 () (_ BitVec 64) #x0000000000000000)
(model-add temp11145_12 () (_ BitVec 64) #x0000000000000005)
(model-add var6950664 () (_ BitVec 64) #x0000000000000005)
(model-add temp11145_14 () (_ BitVec 64) #x0000000000000000)
(model-add temp11145_13 () (_ BitVec 64) #x0000000000000000)
(model-add temp11145_15 () (_ BitVec 64) #x0000000000000000)
(model-add var7212791 () (_ BitVec 64) #x0000000000000000)
(model-add temp11145_16 () (_ BitVec 64) #x0000000000000000)
(model-add var6817832 () (_ BitVec 64) #x0000000000000000)
(model-add var6817874 () (_ BitVec 64) #x0000000000000000)
(model-add temp11145_18 () (_ BitVec 64) #x0000000000000000)
(model-add temp11145_17 () (_ BitVec 64) #x0000000000000000)
(model-add temp11145_19 () (_ BitVec 64) #x0000000000000001)
(model-add var7670776 () (_ BitVec 64) #x0000000000000001)
(model-add temp11145_20 () (_ BitVec 64) #x0000000000000000)
(model-add var7670826 () (_ BitVec 64) #x0000000000000000)
(model-add temp11145_21 () (_ BitVec 64) #x0000000000000000)




